p wcnf 105 52 53 
1 -33 30 0 
1 72 -17 0 
1 -53 -34 0 
1 -43 3 0 
1 -11 41 0 
1 60 -64 0 
1 -101 -12 0 
1 -68 -77 0 
1 44 -98 0 
1 -100 66 0 
1 -15 -33 0 
1 34 97 0 
1 1 24 0 
1 1 -38 0 
1 55 -47 0 
1 28 88 0 
1 -81 -93 0 
1 101 78 0 
1 -36 -93 0 
1 103 -49 0 
1 73 -16 0 
1 46 97 0 
1 -86 6 0 
1 -91 -54 0 
1 10 -48 0 
1 18 -37 0 
1 89 -45 0 
1 -8 94 0 
1 -32 2 0 
1 91 41 0 
1 39 60 0 
1 35 -1 0 
1 57 -10 0 
1 -84 59 0 
1 41 -32 0 
1 -22 104 0 
1 -96 69 0 
1 7 66 0 
1 88 28 0 
1 -101 96 0 
1 53 -80 0 
1 -57 80 0 
1 -55 -89 0 
1 52 89 0 
1 -84 -73 0 
1 -105 -1 0 
1 11 105 0 
1 -39 -76 0 
1 44 10 0 
1 -84 51 0 
1 -11 -78 0 
1 -39 -28 0 
